     30      2      6    518     12
     44     52
     11     15     16     14     19     20     23      1     16      4      2     29     17      3     27     22      5     27     24      6      8      7     26     19      5     23      3     19      8     15     23      1     26     25     21      4     25     23     13      9     28      4     17     16     10     27     21      8      3      0     27      7      5     10     14     13     27      9     26     12     21     18      7      6     29     16     11     25     17     10     29      8     14     18     12     25     10     16     12      5     10      4     19     24      6     17     11      0      3      8     21      0      6     14     12      4     27     17      6     10     13     20      3      2     15      7      0     24     27     21     11     18     25     14     16     14      6     11     29     22     16     11     22      8     19     29     15     12      4     25      6      9     22      1      8     16     11     24      0      2      7     23     25      8     27     25     13      1     10     20      6     19      8     13     24     17     28     22      4     12     21     27      9     13      5     28     21     12      8     27     20      6      2     10     27     24     12     13     11     19
     84     25     -1     -9     30     87     20     72     49     73     46     93     10     64      5      0     55     71     36     22     72      5      5      7     60    -13     87     47     15     -8     -1     78     50    -23     15     -1     53     34     82     22
      6     11     10	    271    134      6      6      4      0      0     41      0      0      0      0      0      0      0    -43    158     69      0      0     10      0    110      0    104      0      0    152      0      0      0      0    -45      0     97
      1     10     10	    116     64      5      5      7      0      0      0      0     -4      0     59      5      0      0      0      0      0      0      0      0      0      0      0      0     15      0    -14      0     16      0      0      0      0      0
      1     12     10	    202     60      1      4      6     41      0      0      0      0      0      0      0      0      0      0      0      0      0     -8      0      0      0      0      0      0      0      0      0      0      0     65      0      0     46
      3     10     12	    500    302      3      5     10      0      0      0      0      0      0      0      0    241      0      0      0      0      0      0      0      0      0      0      0    -35      0      0    131     20      0      0      0      0      0
      4     10     15	    458    244      5      5      1      0     -4      0      0      0      0      0    213    147     28      0      0      0      0     73      0      0      0      0    318      0      0      0      0      0      0      0     67      0      0
      3     10     14	    414    192      5      6      2      0      0      0      0      0      0      0    -52      0    -46      0      0      0      0    129      0      0      0      0    186    224     26      0      0      0      0      0      0      0    241
      3     12     15	    403    164      4      4      4      0     59      0      0      0      0      0      0      0      0      0      0      0      0     89      0      0    161      0      0      0      0      0      0      0      0      0     71      0      0
      2     10     14	    284    142      3      3      4      0      5      0      0    213    -52      0      0     32      0      0      0      0      0      0      0      0      0      0      0      0     35      0      0    -13      0      0    117      0      0
      5     14     11	    338     93      6      6      5      0      0      0    241    147      0      0     32      0      0      0      0      0      0      0    152      0    242      0      0      0      0    163    -33      0      0     66      0      0      0
      3     14     10	    482    284      4      6      9      0      0      0      0     28    -46      0      0      0      0      0      0     42      0      0      0    179      0    158      0     19      0      0      0      0      0      0      0      0      0
      6     14     14	    309    134      6      6      6    -43      0      0      0      0      0      0      0      0      0      0      0      0      9      0      0      0      0      0    168      0     -2      0      0    218      0      0      0      0    -38
      3     10     15	    433    132      4      5      1    158      0      0      0      0      0      0      0      0      0      0      0      0      0      0      0      0      0      0      0    330      0      0      0      0      0      0      0     19      0
      2     12     15	    241    149      2      3      8     69      0      0      0      0      0      0      0      0     42      0      0      0      0    -28      5    -25      0    110      0      0    -17      0      0     50      0     33     34      0    -20
      1     10     15	    394    201      1      5      2      0      0      0      0      0      0      0      0      0      0      9      0      0      0      0      0      0      0      0      0      0      0      0    100      0      0      0      0      0    285
      3     13     10	    285     67      3      3      3      0      0     -8      0     73    129     89      0      0      0      0      0    -28      0      0      0      0      0      0      0      0      0      0      0    147      0      0      0      0    -55
      4     10     11	    239     94      6      6      7     10      0      0      0      0      0      0      0    152      0      0      0      5      0      0      0      0      0      0      0      0      0      0      0    186      0      0      0     19      0
      2     11     12	    303    147      2      3      1      0      0      0      0      0      0      0      0      0    179      0      0    -25      0      0      0      0    122      0      0    142      0      0     67      0      0      0      0      0    -33
      1     14     15	    346    120      3      3      7    110      0      0      0      0      0    161      0    242      0      0      0      0      0      0      0    122      0      0      0      0      0      0      0      0      0      0      0     24      0
      3     12     14	    338    154      5      5      7      0      0      0      0      0      0      0      0      0    158      0      0    110      0      0      0      0      0      0      0    246      0      0      0      0      0      0      0     80      0
      4     12     12	    466    210      6      6     10    104      0      0      0    318    186      0      0      0      0    168      0      0      0      0      0      0      0      0      0      0      0      0      0      0      0    366      0      0      0
      6     11     10	    476     75      6      6      2      0     15      0    -35      0    224      0      0      0     19      0    330      0      0      0      0    142      0    246      0      0      0      0      0      0      0      0     24      0      0
      1     12     11	    112     61      4      6      1      0      0      0      0      0     26      0     35      0      0     -2      0    -17      0      0      0      0      0      0      0      0      0      0      0      0      0      0      0      0      0
      5     11     11	    323    144      5      6     10    152    -14      0      0      0      0      0      0    163      0      0      0      0      0      0      0      0      0      0      0      0      0      0      0     24      0      0      0      0      0
      2     12     15	    252     77      3      5     10      0      0      0    131      0      0      0      0    -33      0      0      0      0    100      0      0     67      0      0      0      0      0      0      0      0     -3      0      0      0    -26
      5     10     13	    289     62      6      6      2      0     16      0     20      0      0      0    -13      0      0    218      0     50      0    147    186      0      0      0      0      0      0     24      0      0      0      0    -20      0      0
      6     10     12	    299    208      6      6      2      0      0      0      0      0      0      0      0      0      0      0      0      0      0      0      0      0      0      0      0      0      0      0     -3      0      0      0      0      0      0
      5     13     14	    492    252      6      6      7      0      0     65      0      0      0      0      0     66      0      0      0     33      0      0      0      0      0      0    366      0      0      0      0      0      0      0      0    -38      0
      4     15     15	    280    193      5      5      9    -45      0      0      0     67      0     71    117      0      0      0      0     34      0      0      0      0      0      0      0     24      0      0      0    -20      0      0      0      0    172
      4     10     13	    207     59      4      5      1      0      0      0      0      0      0      0      0      0      0      0     19      0      0      0     19      0     24     80      0      0      0      0      0      0      0    -38      0      0      0
      1     14     10	    482    161      2      4      2     97      0     46      0      0    241      0      0      0      0    -38      0    -20    285    -55      0    -33      0      0      0      0      0      0    -26      0      0      0    172      0      0